TC_ILP/collapse_pyr_dfg__113_1.0.lp
Minimize
M1 + M2
Subject To
x0,5 + x0,6 + x0,7 = 1
x1,4 + x1,5 + x1,6 = 1
x2,3 + x2,4 + x2,5 = 1
x3,2 + x3,3 + x3,4 = 1
x4,1 + x4,2 + x4,3 = 1
x5,5 + x5,6 + x5,7 + x5,8 = 1
x6,7 + x6,8 = 1
x7,5 + x7,6 = 1
x8,4 + x8,5 = 1
x9,3 + x9,4 = 1
x10,2 + x10,3 = 1
x11,1 + x11,2 = 1
x12,7 + x12,8 = 1
x13,5 + x13,6 = 1
x14,4 + x14,5 = 1
x15,3 + x15,4 = 1
x16,2 + x16,3 = 1
x17,1 + x17,2 = 1
x18,8 = 1
x19,5 + x19,6 = 1
x20,4 + x20,5 = 1
x21,3 + x21,4 = 1
x22,2 + x22,3 = 1
x23,1 + x23,2 = 1
x24,4 + x24,5 + x24,6 + x24,7 = 1
x25,7 = 1
x26,5 = 1
x27,4 = 1
x28,3 = 1
x29,2 = 1
x30,1 = 1
x31,7 = 1
x32,5 = 1
x33,4 = 1
x34,3 = 1
x35,2 = 1
x36,1 = 1
x37,8 = 1
x38,5 + x38,6 = 1
x39,4 + x39,5 = 1
x40,3 + x40,4 = 1
x41,3 + x41,4 + x41,5 + x41,6 = 1
x42,2 + x42,3 = 1
x43,1 + x43,2 = 1
x44,7 = 1
x45,5 = 1
x46,4 = 1
x47,3 = 1
x48,2 = 1
x49,1 = 1
x50,7 = 1
x51,5 = 1
x52,4 = 1
x53,3 = 1
x54,2 = 1
x55,1 = 1
x4,1 + x11,1 + x17,1 + x23,1 + x30,1 + x36,1 + x43,1 + x49,1 + x55,1 - M2 <= 0
x3,2 + x4,2 + x10,2 + x11,2 + x16,2 + x17,2 + x22,2 + x23,2 + x29,2 + x35,2 + x42,2 + x43,2 + x48,2 + x54,2 - M2 <= 0
x2,3 + x3,3 + x4,3 + x9,3 + x10,3 + x15,3 + x16,3 + x21,3 + x22,3 + x28,3 + x34,3 + x40,3 + x41,3 + x42,3 + x47,3 + x53,3 - M2 <= 0
x1,4 + x2,4 + x3,4 + x8,4 + x9,4 + x14,4 + x15,4 + x20,4 + x21,4 + x24,4 + x27,4 + x33,4 + x39,4 + x40,4 + x41,4 + x46,4 + x52,4 - M2 <= 0
x1,5 + x2,5 + x5,5 + x8,5 + x14,5 + x20,5 + x24,5 + x39,5 + x41,5 - M2 <= 0
x0,5 + x0,4 + x7,5 + x7,4 + x13,5 + x13,4 + x19,5 + x19,4 + x26,5 + x26,4 + x32,5 + x32,4 + x38,5 + x38,4 + x45,5 + x45,4 + x51,5 + x51,4 - M1 <= 0
x1,6 + x5,6 + x24,6 + x41,6 - M2 <= 0
x0,6 + x0,5 + x7,6 + x7,5 + x13,6 + x13,5 + x19,6 + x19,5 + x26,6 + x26,5 + x32,6 + x32,5 + x38,6 + x38,5 + x45,6 + x45,5 + x51,6 + x51,5 - M1 <= 0
x5,7 + x6,7 + x12,7 + x24,7 + x25,7 + x31,7 + x44,7 + x50,7 - M2 <= 0
x0,7 + x0,6 + x7,7 + x7,6 + x13,7 + x13,6 + x19,7 + x19,6 + x38,7 + x38,6 - M1 <= 0
x5,8 + x6,8 + x12,8 + x18,8 + x37,8 - M2 <= 0
4 x1,4 + 5 x1,5 + 6 x1,6 - 5 x0,5 - 6 x0,6 - 7 x0,7 <= -1
3 x2,3 + 4 x2,4 + 5 x2,5 - 4 x1,4 - 5 x1,5 - 6 x1,6 <= -1
2 x3,2 + 3 x3,3 + 4 x3,4 - 3 x2,3 - 4 x2,4 - 5 x2,5 <= -1
1 x4,1 + 2 x4,2 + 3 x4,3 - 4 x1,4 - 5 x1,5 - 6 x1,6 <= -1
1 x4,1 + 2 x4,2 + 3 x4,3 - 2 x3,2 - 3 x3,3 - 4 x3,4 <= -1
5 x7,5 + 6 x7,6 - 7 x6,7 - 8 x6,8 <= -2
4 x8,4 + 5 x8,5 - 5 x7,5 - 6 x7,6 <= -1
3 x9,3 + 4 x9,4 - 4 x8,4 - 5 x8,5 <= -1
2 x10,2 + 3 x10,3 - 5 x5,5 - 6 x5,6 - 7 x5,7 - 8 x5,8 <= -1
2 x10,2 + 3 x10,3 - 3 x9,3 - 4 x9,4 <= -1
1 x11,1 + 2 x11,2 - 4 x8,4 - 5 x8,5 <= -1
1 x11,1 + 2 x11,2 - 2 x10,2 - 3 x10,3 <= -1
5 x13,5 + 6 x13,6 - 7 x12,7 - 8 x12,8 <= -2
4 x14,4 + 5 x14,5 - 5 x13,5 - 6 x13,6 <= -1
3 x15,3 + 4 x15,4 - 4 x14,4 - 5 x14,5 <= -1
2 x16,2 + 3 x16,3 - 5 x5,5 - 6 x5,6 - 7 x5,7 - 8 x5,8 <= -1
2 x16,2 + 3 x16,3 - 3 x15,3 - 4 x15,4 <= -1
1 x17,1 + 2 x17,2 - 4 x14,4 - 5 x14,5 <= -1
1 x17,1 + 2 x17,2 - 2 x16,2 - 3 x16,3 <= -1
5 x19,5 + 6 x19,6 - 8 x18,8 <= -2
4 x20,4 + 5 x20,5 - 5 x19,5 - 6 x19,6 <= -1
3 x21,3 + 4 x21,4 - 4 x20,4 - 5 x20,5 <= -1
2 x22,2 + 3 x22,3 - 5 x5,5 - 6 x5,6 - 7 x5,7 - 8 x5,8 <= -1
2 x22,2 + 3 x22,3 - 3 x21,3 - 4 x21,4 <= -1
1 x23,1 + 2 x23,2 - 4 x20,4 - 5 x20,5 <= -1
1 x23,1 + 2 x23,2 - 2 x22,2 - 3 x22,3 <= -1
4 x24,4 + 5 x24,5 + 6 x24,6 + 7 x24,7 - 5 x5,5 - 6 x5,6 - 7 x5,7 - 8 x5,8 <= -1
7 x25,7 - 8 x18,8 <= -1
5 x26,5 - 7 x25,7 <= -2
4 x27,4 - 5 x26,5 <= -1
3 x28,3 - 4 x27,4 <= -1
2 x29,2 - 4 x24,4 - 5 x24,5 - 6 x24,6 - 7 x24,7 <= -1
2 x29,2 - 3 x28,3 <= -1
1 x30,1 - 4 x27,4 <= -1
1 x30,1 - 2 x29,2 <= -1
7 x31,7 - 8 x18,8 <= -1
5 x32,5 - 7 x31,7 <= -2
4 x33,4 - 5 x32,5 <= -1
3 x34,3 - 4 x33,4 <= -1
2 x35,2 - 5 x5,5 - 6 x5,6 - 7 x5,7 - 8 x5,8 <= -1
2 x35,2 - 4 x24,4 - 5 x24,5 - 6 x24,6 - 7 x24,7 <= -1
2 x35,2 - 3 x34,3 <= -1
1 x36,1 - 4 x33,4 <= -1
1 x36,1 - 2 x35,2 <= -1
5 x38,5 + 6 x38,6 - 8 x37,8 <= -2
4 x39,4 + 5 x39,5 - 5 x38,5 - 6 x38,6 <= -1
3 x40,3 + 4 x40,4 - 4 x39,4 - 5 x39,5 <= -1
3 x41,3 + 4 x41,4 + 5 x41,5 + 6 x41,6 - 5 x5,5 - 6 x5,6 - 7 x5,7 - 8 x5,8 <= -1
3 x41,3 + 4 x41,4 + 5 x41,5 + 6 x41,6 - 4 x24,4 - 5 x24,5 - 6 x24,6 - 7 x24,7 <= -1
2 x42,2 + 3 x42,3 - 3 x40,3 - 4 x40,4 <= -1
2 x42,2 + 3 x42,3 - 3 x41,3 - 4 x41,4 - 5 x41,5 - 6 x41,6 <= -1
1 x43,1 + 2 x43,2 - 4 x39,4 - 5 x39,5 <= -1
1 x43,1 + 2 x43,2 - 2 x42,2 - 3 x42,3 <= -1
7 x44,7 - 8 x18,8 <= -1
7 x44,7 - 8 x37,8 <= -1
5 x45,5 - 7 x44,7 <= -2
4 x46,4 - 5 x45,5 <= -1
3 x47,3 - 4 x46,4 <= -1
2 x48,2 - 5 x5,5 - 6 x5,6 - 7 x5,7 - 8 x5,8 <= -1
2 x48,2 - 4 x24,4 - 5 x24,5 - 6 x24,6 - 7 x24,7 <= -1
2 x48,2 - 3 x47,3 <= -1
1 x49,1 - 4 x46,4 <= -1
1 x49,1 - 2 x48,2 <= -1
7 x50,7 - 8 x18,8 <= -1
7 x50,7 - 8 x37,8 <= -1
5 x51,5 - 7 x50,7 <= -2
4 x52,4 - 5 x51,5 <= -1
3 x53,3 - 4 x52,4 <= -1
2 x54,2 - 5 x5,5 - 6 x5,6 - 7 x5,7 - 8 x5,8 <= -1
2 x54,2 - 4 x24,4 - 5 x24,5 - 6 x24,6 - 7 x24,7 <= -1
2 x54,2 - 3 x53,3 <= -1
1 x55,1 - 4 x52,4 <= -1
1 x55,1 - 2 x54,2 <= -1
Bounds
0 <= x0,5 <= 1
0 <= x0,6 <= 1
0 <= x0,7 <= 1
0 <= x1,4 <= 1
0 <= x1,5 <= 1
0 <= x1,6 <= 1
0 <= x2,3 <= 1
0 <= x2,4 <= 1
0 <= x2,5 <= 1
0 <= x3,2 <= 1
0 <= x3,3 <= 1
0 <= x3,4 <= 1
0 <= x4,1 <= 1
0 <= x4,2 <= 1
0 <= x4,3 <= 1
0 <= x5,5 <= 1
0 <= x5,6 <= 1
0 <= x5,7 <= 1
0 <= x5,8 <= 1
0 <= x6,7 <= 1
0 <= x6,8 <= 1
0 <= x7,5 <= 1
0 <= x7,6 <= 1
0 <= x8,4 <= 1
0 <= x8,5 <= 1
0 <= x9,3 <= 1
0 <= x9,4 <= 1
0 <= x10,2 <= 1
0 <= x10,3 <= 1
0 <= x11,1 <= 1
0 <= x11,2 <= 1
0 <= x12,7 <= 1
0 <= x12,8 <= 1
0 <= x13,5 <= 1
0 <= x13,6 <= 1
0 <= x14,4 <= 1
0 <= x14,5 <= 1
0 <= x15,3 <= 1
0 <= x15,4 <= 1
0 <= x16,2 <= 1
0 <= x16,3 <= 1
0 <= x17,1 <= 1
0 <= x17,2 <= 1
0 <= x18,8 <= 1
0 <= x19,5 <= 1
0 <= x19,6 <= 1
0 <= x20,4 <= 1
0 <= x20,5 <= 1
0 <= x21,3 <= 1
0 <= x21,4 <= 1
0 <= x22,2 <= 1
0 <= x22,3 <= 1
0 <= x23,1 <= 1
0 <= x23,2 <= 1
0 <= x24,4 <= 1
0 <= x24,5 <= 1
0 <= x24,6 <= 1
0 <= x24,7 <= 1
0 <= x25,7 <= 1
0 <= x26,5 <= 1
0 <= x27,4 <= 1
0 <= x28,3 <= 1
0 <= x29,2 <= 1
0 <= x30,1 <= 1
0 <= x31,7 <= 1
0 <= x32,5 <= 1
0 <= x33,4 <= 1
0 <= x34,3 <= 1
0 <= x35,2 <= 1
0 <= x36,1 <= 1
0 <= x37,8 <= 1
0 <= x38,5 <= 1
0 <= x38,6 <= 1
0 <= x39,4 <= 1
0 <= x39,5 <= 1
0 <= x40,3 <= 1
0 <= x40,4 <= 1
0 <= x41,3 <= 1
0 <= x41,4 <= 1
0 <= x41,5 <= 1
0 <= x41,6 <= 1
0 <= x42,2 <= 1
0 <= x42,3 <= 1
0 <= x43,1 <= 1
0 <= x43,2 <= 1
0 <= x44,7 <= 1
0 <= x45,5 <= 1
0 <= x46,4 <= 1
0 <= x47,3 <= 1
0 <= x48,2 <= 1
0 <= x49,1 <= 1
0 <= x50,7 <= 1
0 <= x51,5 <= 1
0 <= x52,4 <= 1
0 <= x53,3 <= 1
0 <= x54,2 <= 1
0 <= x55,1 <= 1
M1 >= 1
M2 >= 1
Generals
x0,5
x0,6
x0,7
x1,4
x1,5
x1,6
x2,3
x2,4
x2,5
x3,2
x3,3
x3,4
x4,1
x4,2
x4,3
x5,5
x5,6
x5,7
x5,8
x6,7
x6,8
x7,5
x7,6
x8,4
x8,5
x9,3
x9,4
x10,2
x10,3
x11,1
x11,2
x12,7
x12,8
x13,5
x13,6
x14,4
x14,5
x15,3
x15,4
x16,2
x16,3
x17,1
x17,2
x18,8
x19,5
x19,6
x20,4
x20,5
x21,3
x21,4
x22,2
x22,3
x23,1
x23,2
x24,4
x24,5
x24,6
x24,7
x25,7
x26,5
x27,4
x28,3
x29,2
x30,1
x31,7
x32,5
x33,4
x34,3
x35,2
x36,1
x37,8
x38,5
x38,6
x39,4
x39,5
x40,3
x40,4
x41,3
x41,4
x41,5
x41,6
x42,2
x42,3
x43,1
x43,2
x44,7
x45,5
x46,4
x47,3
x48,2
x49,1
x50,7
x51,5
x52,4
x53,3
x54,2
x55,1
M1
M2
End
