TC_ILP/collapse_pyr_dfg__113_1.0.sol
<?xml version = "1.0" encoding="UTF-8" standalone="yes"?>
<CPLEXSolution version="1.2">
 <header
   problemName="collapse_pyr_dfg__113_1.0.lp"
   solutionName="incumbent"
   solutionIndex="-1"
   objectiveValue="16"
   solutionTypeValue="3"
   solutionTypeString="primal"
   solutionStatusValue="101"
   solutionStatusString="integer optimal solution"
   solutionMethodString="mip"
   primalFeasible="1"
   dualFeasible="1"
   MIPNodes="0"
   MIPIterations="11"
   writeLevel="1"/>
 <quality
   epInt="1.0000000000000001e-05"
   epRHS="9.9999999999999995e-07"
   maxIntInfeas="0"
   maxPrimalInfeas="0"
   maxX="8"
   maxSlack="6"/>
 <linearConstraints>
  <constraint name="c1" index="0" slack="0"/>
  <constraint name="c2" index="1" slack="0"/>
  <constraint name="c3" index="2" slack="0"/>
  <constraint name="c4" index="3" slack="0"/>
  <constraint name="c5" index="4" slack="0"/>
  <constraint name="c6" index="5" slack="0"/>
  <constraint name="c7" index="6" slack="0"/>
  <constraint name="c8" index="7" slack="0"/>
  <constraint name="c9" index="8" slack="0"/>
  <constraint name="c10" index="9" slack="0"/>
  <constraint name="c11" index="10" slack="0"/>
  <constraint name="c12" index="11" slack="0"/>
  <constraint name="c13" index="12" slack="0"/>
  <constraint name="c14" index="13" slack="0"/>
  <constraint name="c15" index="14" slack="0"/>
  <constraint name="c16" index="15" slack="0"/>
  <constraint name="c17" index="16" slack="0"/>
  <constraint name="c18" index="17" slack="0"/>
  <constraint name="c19" index="18" slack="0"/>
  <constraint name="c20" index="19" slack="0"/>
  <constraint name="c21" index="20" slack="0"/>
  <constraint name="c22" index="21" slack="0"/>
  <constraint name="c23" index="22" slack="0"/>
  <constraint name="c24" index="23" slack="0"/>
  <constraint name="c25" index="24" slack="0"/>
  <constraint name="c26" index="25" slack="0"/>
  <constraint name="c27" index="26" slack="0"/>
  <constraint name="c28" index="27" slack="0"/>
  <constraint name="c29" index="28" slack="0"/>
  <constraint name="c30" index="29" slack="0"/>
  <constraint name="c31" index="30" slack="0"/>
  <constraint name="c32" index="31" slack="0"/>
  <constraint name="c33" index="32" slack="0"/>
  <constraint name="c34" index="33" slack="0"/>
  <constraint name="c35" index="34" slack="0"/>
  <constraint name="c36" index="35" slack="0"/>
  <constraint name="c37" index="36" slack="0"/>
  <constraint name="c38" index="37" slack="0"/>
  <constraint name="c39" index="38" slack="0"/>
  <constraint name="c40" index="39" slack="0"/>
  <constraint name="c41" index="40" slack="0"/>
  <constraint name="c42" index="41" slack="0"/>
  <constraint name="c43" index="42" slack="0"/>
  <constraint name="c44" index="43" slack="0"/>
  <constraint name="c45" index="44" slack="0"/>
  <constraint name="c46" index="45" slack="0"/>
  <constraint name="c47" index="46" slack="0"/>
  <constraint name="c48" index="47" slack="0"/>
  <constraint name="c49" index="48" slack="0"/>
  <constraint name="c50" index="49" slack="0"/>
  <constraint name="c51" index="50" slack="0"/>
  <constraint name="c52" index="51" slack="0"/>
  <constraint name="c53" index="52" slack="0"/>
  <constraint name="c54" index="53" slack="0"/>
  <constraint name="c55" index="54" slack="0"/>
  <constraint name="c56" index="55" slack="0"/>
  <constraint name="c57" index="56" slack="0"/>
  <constraint name="c58" index="57" slack="0"/>
  <constraint name="c59" index="58" slack="1"/>
  <constraint name="c60" index="59" slack="1"/>
  <constraint name="c61" index="60" slack="3"/>
  <constraint name="c62" index="61" slack="4"/>
  <constraint name="c63" index="62" slack="6"/>
  <constraint name="c64" index="63" slack="0"/>
  <constraint name="c65" index="64" slack="3"/>
  <constraint name="c66" index="65" slack="3"/>
  <constraint name="c67" index="66" slack="3"/>
  <constraint name="c68" index="67" slack="0"/>
  <constraint name="c69" index="68" slack="0"/>
  <constraint name="c70" index="69" slack="2"/>
  <constraint name="c71" index="70" slack="4"/>
  <constraint name="c72" index="71" slack="0"/>
  <constraint name="c73" index="72" slack="0"/>
  <constraint name="c74" index="73" slack="0"/>
  <constraint name="c75" index="74" slack="1"/>
  <constraint name="c76" index="75" slack="5"/>
  <constraint name="c77" index="76" slack="0"/>
  <constraint name="c78" index="77" slack="3"/>
  <constraint name="c79" index="78" slack="0"/>
  <constraint name="c80" index="79" slack="0"/>
  <constraint name="c81" index="80" slack="0"/>
  <constraint name="c82" index="81" slack="0"/>
  <constraint name="c83" index="82" slack="5"/>
  <constraint name="c84" index="83" slack="1"/>
  <constraint name="c85" index="84" slack="3"/>
  <constraint name="c86" index="85" slack="0"/>
  <constraint name="c87" index="86" slack="0"/>
  <constraint name="c88" index="87" slack="0"/>
  <constraint name="c89" index="88" slack="0"/>
  <constraint name="c90" index="89" slack="4"/>
  <constraint name="c91" index="90" slack="0"/>
  <constraint name="c92" index="91" slack="3"/>
  <constraint name="c93" index="92" slack="1"/>
  <constraint name="c94" index="93" slack="0"/>
  <constraint name="c95" index="94" slack="0"/>
  <constraint name="c96" index="95" slack="0"/>
  <constraint name="c97" index="96" slack="0"/>
  <constraint name="c98" index="97" slack="0"/>
  <constraint name="c99" index="98" slack="4"/>
  <constraint name="c100" index="99" slack="0"/>
  <constraint name="c101" index="100" slack="2"/>
  <constraint name="c102" index="101" slack="0"/>
  <constraint name="c103" index="102" slack="0"/>
  <constraint name="c104" index="103" slack="0"/>
  <constraint name="c105" index="104" slack="0"/>
  <constraint name="c106" index="105" slack="0"/>
  <constraint name="c107" index="106" slack="5"/>
  <constraint name="c108" index="107" slack="4"/>
  <constraint name="c109" index="108" slack="0"/>
  <constraint name="c110" index="109" slack="2"/>
  <constraint name="c111" index="110" slack="0"/>
  <constraint name="c112" index="111" slack="0"/>
  <constraint name="c113" index="112" slack="0"/>
  <constraint name="c114" index="113" slack="0"/>
  <constraint name="c115" index="114" slack="1"/>
  <constraint name="c116" index="115" slack="0"/>
  <constraint name="c117" index="116" slack="0"/>
  <constraint name="c118" index="117" slack="2"/>
  <constraint name="c119" index="118" slack="2"/>
  <constraint name="c120" index="119" slack="0"/>
  <constraint name="c121" index="120" slack="0"/>
  <constraint name="c122" index="121" slack="0"/>
  <constraint name="c123" index="122" slack="0"/>
  <constraint name="c124" index="123" slack="0"/>
  <constraint name="c125" index="124" slack="0"/>
  <constraint name="c126" index="125" slack="5"/>
  <constraint name="c127" index="126" slack="4"/>
  <constraint name="c128" index="127" slack="0"/>
  <constraint name="c129" index="128" slack="2"/>
  <constraint name="c130" index="129" slack="0"/>
  <constraint name="c131" index="130" slack="0"/>
  <constraint name="c132" index="131" slack="0"/>
  <constraint name="c133" index="132" slack="0"/>
  <constraint name="c134" index="133" slack="0"/>
  <constraint name="c135" index="134" slack="0"/>
  <constraint name="c136" index="135" slack="5"/>
  <constraint name="c137" index="136" slack="4"/>
  <constraint name="c138" index="137" slack="0"/>
  <constraint name="c139" index="138" slack="2"/>
  <constraint name="c140" index="139" slack="0"/>
 </linearConstraints>
 <variables>
  <variable name="M1" index="0" value="8"/>
  <variable name="M2" index="1" value="8"/>
  <variable name="x0,5" index="2" value="0"/>
  <variable name="x0,6" index="3" value="0"/>
  <variable name="x0,7" index="4" value="1"/>
  <variable name="x1,4" index="5" value="0"/>
  <variable name="x1,5" index="6" value="0"/>
  <variable name="x1,6" index="7" value="1"/>
  <variable name="x2,3" index="8" value="-0"/>
  <variable name="x2,4" index="9" value="-0"/>
  <variable name="x2,5" index="10" value="1"/>
  <variable name="x3,2" index="11" value="1"/>
  <variable name="x3,3" index="12" value="-0"/>
  <variable name="x3,4" index="13" value="0"/>
  <variable name="x4,1" index="14" value="1"/>
  <variable name="x4,2" index="15" value="0"/>
  <variable name="x4,3" index="16" value="-0"/>
  <variable name="x5,5" index="17" value="0"/>
  <variable name="x5,6" index="18" value="-0"/>
  <variable name="x5,7" index="19" value="-0"/>
  <variable name="x5,8" index="20" value="1"/>
  <variable name="x6,7" index="21" value="0"/>
  <variable name="x6,8" index="22" value="1"/>
  <variable name="x7,5" index="23" value="0"/>
  <variable name="x7,6" index="24" value="1"/>
  <variable name="x8,4" index="25" value="0"/>
  <variable name="x8,5" index="26" value="1"/>
  <variable name="x9,3" index="27" value="1"/>
  <variable name="x9,4" index="28" value="-0"/>
  <variable name="x10,2" index="29" value="1"/>
  <variable name="x10,3" index="30" value="-0"/>
  <variable name="x11,1" index="31" value="1"/>
  <variable name="x11,2" index="32" value="0"/>
  <variable name="x12,7" index="33" value="0"/>
  <variable name="x12,8" index="34" value="1"/>
  <variable name="x13,5" index="35" value="0"/>
  <variable name="x13,6" index="36" value="1"/>
  <variable name="x14,4" index="37" value="0"/>
  <variable name="x14,5" index="38" value="1"/>
  <variable name="x15,3" index="39" value="0"/>
  <variable name="x15,4" index="40" value="1"/>
  <variable name="x16,2" index="41" value="1"/>
  <variable name="x16,3" index="42" value="-0"/>
  <variable name="x17,1" index="43" value="1"/>
  <variable name="x17,2" index="44" value="0"/>
  <variable name="x18,8" index="45" value="1"/>
  <variable name="x19,5" index="46" value="0"/>
  <variable name="x19,6" index="47" value="1"/>
  <variable name="x20,4" index="48" value="0"/>
  <variable name="x20,5" index="49" value="1"/>
  <variable name="x21,3" index="50" value="0"/>
  <variable name="x21,4" index="51" value="1"/>
  <variable name="x22,2" index="52" value="0"/>
  <variable name="x22,3" index="53" value="1"/>
  <variable name="x23,1" index="54" value="1"/>
  <variable name="x23,2" index="55" value="-0"/>
  <variable name="x24,4" index="56" value="0"/>
  <variable name="x24,5" index="57" value="0"/>
  <variable name="x24,6" index="58" value="0"/>
  <variable name="x24,7" index="59" value="1"/>
  <variable name="x25,7" index="60" value="1"/>
  <variable name="x26,5" index="61" value="1"/>
  <variable name="x27,4" index="62" value="1"/>
  <variable name="x28,3" index="63" value="1"/>
  <variable name="x29,2" index="64" value="1"/>
  <variable name="x30,1" index="65" value="1"/>
  <variable name="x31,7" index="66" value="1"/>
  <variable name="x32,5" index="67" value="1"/>
  <variable name="x33,4" index="68" value="1"/>
  <variable name="x34,3" index="69" value="1"/>
  <variable name="x35,2" index="70" value="1"/>
  <variable name="x36,1" index="71" value="1"/>
  <variable name="x37,8" index="72" value="1"/>
  <variable name="x38,5" index="73" value="0"/>
  <variable name="x38,6" index="74" value="1"/>
  <variable name="x39,4" index="75" value="0"/>
  <variable name="x39,5" index="76" value="1"/>
  <variable name="x40,3" index="77" value="0"/>
  <variable name="x40,4" index="78" value="1"/>
  <variable name="x41,3" index="79" value="0"/>
  <variable name="x41,4" index="80" value="0"/>
  <variable name="x41,5" index="81" value="0"/>
  <variable name="x41,6" index="82" value="1"/>
  <variable name="x42,2" index="83" value="0"/>
  <variable name="x42,3" index="84" value="1"/>
  <variable name="x43,1" index="85" value="0"/>
  <variable name="x43,2" index="86" value="1"/>
  <variable name="x44,7" index="87" value="1"/>
  <variable name="x45,5" index="88" value="1"/>
  <variable name="x46,4" index="89" value="1"/>
  <variable name="x47,3" index="90" value="1"/>
  <variable name="x48,2" index="91" value="1"/>
  <variable name="x49,1" index="92" value="1"/>
  <variable name="x50,7" index="93" value="1"/>
  <variable name="x51,5" index="94" value="1"/>
  <variable name="x52,4" index="95" value="1"/>
  <variable name="x53,3" index="96" value="1"/>
  <variable name="x54,2" index="97" value="1"/>
  <variable name="x55,1" index="98" value="1"/>
  <variable name="x0,4" index="99" value="0"/>
  <variable name="x7,4" index="100" value="0"/>
  <variable name="x13,4" index="101" value="0"/>
  <variable name="x19,4" index="102" value="0"/>
  <variable name="x26,4" index="103" value="0"/>
  <variable name="x32,4" index="104" value="0"/>
  <variable name="x38,4" index="105" value="0"/>
  <variable name="x45,4" index="106" value="0"/>
  <variable name="x51,4" index="107" value="0"/>
  <variable name="x26,6" index="108" value="0"/>
  <variable name="x32,6" index="109" value="0"/>
  <variable name="x45,6" index="110" value="0"/>
  <variable name="x51,6" index="111" value="0"/>
  <variable name="x7,7" index="112" value="0"/>
  <variable name="x13,7" index="113" value="0"/>
  <variable name="x19,7" index="114" value="0"/>
  <variable name="x38,7" index="115" value="0"/>
 </variables>
</CPLEXSolution>
